# SCIP version 4.0.0.2

# the bandit algorithm: (u)pper confidence bounds, (e)xp.3, epsilon (g)reedy
# [type: char, advanced: TRUE, range: {ueg}, default: e]
heuristics/lns/banditalgo = u

# parameter to increase the confidence width in UCB
# [type: real, advanced: TRUE, range: [0,1], default: 0.2]
heuristics/lns/alpha = 1

heuristics/lns/gaincontrol = 1.0